% Instance for pentominoes model generated using https://github.com/zayenz/minizinc-pentominoes-generator
% Instance generated for board size 15 with 5 tiles using 42 as seed
% Generated board
%    222221111144444
%    552221111144444
%    552211111141444
%    555231111111114
%    555331111111111
%    533333331111311
%    533333333333333
%    333333333333333
%    333333333333333
%    333333333333333
%    333333333333333
%    333333333333333
%    333333333333333
%    333333333333333
%    333333333333333

size = 15;
tiles = 5;
expressions = [
    "( ([2 3 4 5 6]* 1{5} [2 3 4 5 6]{5} [2 3 4 5 6] [2 3 4 5 6]{5} 1{5} [2 3 4 5 6]{5} [2 3 4 5 6] [2 3 4 5 6]{4} 1{6} [2 3 4 5 6]{1} 1{1} [2 3 4 5 6]{3} [2 3 4 5 6] [2 3 4 5 6]{5} 1{9} [2 3 4 5 6]{1} [2 3 4 5 6] [2 3 4 5 6]{5} 1{10} [2 3 4 5 6] [2 3 4 5 6]{8} 1{4} [2 3 4 5 6]{1} 1{2} [2 3 4 5 6]*) | ([2 3 4 5 6]* 1{1} [2 3 4 5 6]{2} [2 3 4 5 6] [2 3 4 5 6]{10} 1{5} [2 3 4 5 6] [2 3 4 5 6]{10} 1{5} [2 3 4 5 6] [2 3 4 5 6]{10} 1{5} [2 3 4 5 6] [2 3 4 5 6]{9} 1{6} [2 3 4 5 6] [2 3 4 5 6]{9} 1{6} [2 3 4 5 6] [2 3 4 5 6]{9} 1{3} [2 3 4 5 6]{3} [2 3 4 5 6] [2 3 4 5 6]{9} 1{4} [2 3 4 5 6]{2} [2 3 4 5 6] [2 3 4 5 6]{10} 1{2} [2 3 4 5 6]{3} [2 3 4 5 6] [2 3 4 5 6]{9} 1{3} [2 3 4 5 6]{3} [2 3 4 5 6] [2 3 4 5 6]{9} 1{2} [2 3 4 5 6]*) | ([2 3 4 5 6]* 1{2} [2 3 4 5 6]{1} 1{4} [2 3 4 5 6]{8} [2 3 4 5 6] 1{10} [2 3 4 5 6]{5} [2 3 4 5 6] [2 3 4 5 6]{1} 1{9} [2 3 4 5 6]{5} [2 3 4 5 6] [2 3 4 5 6]{3} 1{1} [2 3 4 5 6]{1} 1{6} [2 3 4 5 6]{4} [2 3 4 5 6] [2 3 4 5 6]{5} 1{5} [2 3 4 5 6]{5} [2 3 4 5 6] [2 3 4 5 6]{5} 1{5} [2 3 4 5 6]*) | ([2 3 4 5 6]* 1{2} [2 3 4 5 6]{9} [2 3 4 5 6] [2 3 4 5 6]{3} 1{3} [2 3 4 5 6]{9} [2 3 4 5 6] [2 3 4 5 6]{3} 1{2} [2 3 4 5 6]{10} [2 3 4 5 6] [2 3 4 5 6]{2} 1{4} [2 3 4 5 6]{9} [2 3 4 5 6] [2 3 4 5 6]{3} 1{3} [2 3 4 5 6]{9} [2 3 4 5 6] 1{6} [2 3 4 5 6]{9} [2 3 4 5 6] 1{6} [2 3 4 5 6]{9} [2 3 4 5 6] 1{5} [2 3 4 5 6]{10} [2 3 4 5 6] 1{5} [2 3 4 5 6]{10} [2 3 4 5 6] 1{5} [2 3 4 5 6]{10} [2 3 4 5 6] [2 3 4 5 6]{2} 1{1} [2 3 4 5 6]*) | ([2 3 4 5 6]* 1{5} [2 3 4 5 6]{5} [2 3 4 5 6] [2 3 4 5 6]{5} 1{5} [2 3 4 5 6]{5} [2 3 4 5 6] [2 3 4 5 6]{3} 1{1} [2 3 4 5 6]{1} 1{6} [2 3 4 5 6]{4} [2 3 4 5 6] [2 3 4 5 6]{1} 1{9} [2 3 4 5 6]{5} [2 3 4 5 6] 1{10} [2 3 4 5 6]{5} [2 3 4 5 6] 1{2} [2 3 4 5 6]{1} 1{4} [2 3 4 5 6]*) | ([2 3 4 5 6]* 1{1} [2 3 4 5 6]{12} [2 3 4 5 6] 1{5} [2 3 4 5 6]{10} [2 3 4 5 6] 1{5} [2 3 4 5 6]{10} [2 3 4 5 6] 1{5} [2 3 4 5 6]{10} [2 3 4 5 6] 1{6} [2 3 4 5 6]{9} [2 3 4 5 6] 1{6} [2 3 4 5 6]{9} [2 3 4 5 6] [2 3 4 5 6]{3} 1{3} [2 3 4 5 6]{9} [2 3 4 5 6] [2 3 4 5 6]{2} 1{4} [2 3 4 5 6]{9} [2 3 4 5 6] [2 3 4 5 6]{3} 1{2} [2 3 4 5 6]{10} [2 3 4 5 6] [2 3 4 5 6]{3} 1{3} [2 3 4 5 6]{9} [2 3 4 5 6] [2 3 4 5 6]{4} 1{2} [2 3 4 5 6]*) | ([2 3 4 5 6]* 1{4} [2 3 4 5 6]{1} 1{2} [2 3 4 5 6] [2 3 4 5 6]{5} 1{10} [2 3 4 5 6] [2 3 4 5 6]{5} 1{9} [2 3 4 5 6]{1} [2 3 4 5 6] [2 3 4 5 6]{4} 1{6} [2 3 4 5 6]{1} 1{1} [2 3 4 5 6]{3} [2 3 4 5 6] [2 3 4 5 6]{5} 1{5} [2 3 4 5 6]{5} [2 3 4 5 6] [2 3 4 5 6]{5} 1{5} [2 3 4 5 6]*) | ([2 3 4 5 6]* 1{2} [2 3 4 5 6]{4} [2 3 4 5 6] [2 3 4 5 6]{9} 1{3} [2 3 4 5 6]{3} [2 3 4 5 6] [2 3 4 5 6]{10} 1{2} [2 3 4 5 6]{3} [2 3 4 5 6] [2 3 4 5 6]{9} 1{4} [2 3 4 5 6]{2} [2 3 4 5 6] [2 3 4 5 6]{9} 1{3} [2 3 4 5 6]{3} [2 3 4 5 6] [2 3 4 5 6]{9} 1{6} [2 3 4 5 6] [2 3 4 5 6]{9} 1{6} [2 3 4 5 6] [2 3 4 5 6]{10} 1{5} [2 3 4 5 6] [2 3 4 5 6]{10} 1{5} [2 3 4 5 6] [2 3 4 5 6]{10} 1{5} [2 3 4 5 6] [2 3 4 5 6]{12} 1{1} [2 3 4 5 6]*) )",
    "( ([1 3 4 5 6]* 2{5} [1 3 4 5 6]{10} [1 3 4 5 6] [1 3 4 5 6]{2} 2{3} [1 3 4 5 6]{10} [1 3 4 5 6] [1 3 4 5 6]{2} 2{2} [1 3 4 5 6]{11} [1 3 4 5 6] [1 3 4 5 6]{3} 2{1} [1 3 4 5 6]*) | ([1 3 4 5 6]* 2{1} [1 3 4 5 6] [1 3 4 5 6]{14} 2{1} [1 3 4 5 6] [1 3 4 5 6]{12} 2{3} [1 3 4 5 6] [1 3 4 5 6]{11} 2{4} [1 3 4 5 6] [1 3 4 5 6]{13} 2{2} [1 3 4 5 6]*) | ([1 3 4 5 6]* 2{1} [1 3 4 5 6]{3} [1 3 4 5 6] [1 3 4 5 6]{11} 2{2} [1 3 4 5 6]{2} [1 3 4 5 6] [1 3 4 5 6]{10} 2{3} [1 3 4 5 6]{2} [1 3 4 5 6] [1 3 4 5 6]{10} 2{5} [1 3 4 5 6]*) | ([1 3 4 5 6]* 2{2} [1 3 4 5 6]{13} [1 3 4 5 6] 2{4} [1 3 4 5 6]{11} [1 3 4 5 6] 2{3} [1 3 4 5 6]{12} [1 3 4 5 6] 2{1} [1 3 4 5 6]{14} [1 3 4 5 6] 2{1} [1 3 4 5 6]*) | ([1 3 4 5 6]* 2{5} [1 3 4 5 6] [1 3 4 5 6]{10} 2{3} [1 3 4 5 6]{2} [1 3 4 5 6] [1 3 4 5 6]{11} 2{2} [1 3 4 5 6]{2} [1 3 4 5 6] [1 3 4 5 6]{11} 2{1} [1 3 4 5 6]*) | ([1 3 4 5 6]* 2{1} [1 3 4 5 6]{14} [1 3 4 5 6] 2{1} [1 3 4 5 6]{14} [1 3 4 5 6] 2{3} [1 3 4 5 6]{12} [1 3 4 5 6] 2{4} [1 3 4 5 6]{11} [1 3 4 5 6] 2{2} [1 3 4 5 6]*) | ([1 3 4 5 6]* 2{1} [1 3 4 5 6]{11} [1 3 4 5 6] [1 3 4 5 6]{2} 2{2} [1 3 4 5 6]{11} [1 3 4 5 6] [1 3 4 5 6]{2} 2{3} [1 3 4 5 6]{10} [1 3 4 5 6] 2{5} [1 3 4 5 6]*) | ([1 3 4 5 6]* 2{2} [1 3 4 5 6] [1 3 4 5 6]{11} 2{4} [1 3 4 5 6] [1 3 4 5 6]{12} 2{3} [1 3 4 5 6] [1 3 4 5 6]{14} 2{1} [1 3 4 5 6] [1 3 4 5 6]{14} 2{1} [1 3 4 5 6]*) )",
    "( ([1 2 4 5 6]* 3{1} [1 2 4 5 6]{10} [1 2 4 5 6] [1 2 4 5 6]{3} 3{2} [1 2 4 5 6]{10} [1 2 4 5 6] [1 2 4 5 6]{1} 3{7} [1 2 4 5 6]{4} 3{1} [1 2 4 5 6]{2} [1 2 4 5 6] [1 2 4 5 6]{1} 3{14} [1 2 4 5 6] 3{15} [1 2 4 5 6] 3{15} [1 2 4 5 6] 3{15} [1 2 4 5 6] 3{15} [1 2 4 5 6] 3{15} [1 2 4 5 6] 3{15} [1 2 4 5 6] 3{15} [1 2 4 5 6] 3{15} [1 2 4 5 6]*) | ([1 2 4 5 6]* 3{8} [1 2 4 5 6]{7} [1 2 4 5 6] 3{10} [1 2 4 5 6]{5} [1 2 4 5 6] 3{10} [1 2 4 5 6]{5} [1 2 4 5 6] 3{11} [1 2 4 5 6]{4} [1 2 4 5 6] 3{12} [1 2 4 5 6]{3} [1 2 4 5 6] 3{10} [1 2 4 5 6]{5} [1 2 4 5 6] 3{10} [1 2 4 5 6]{5} [1 2 4 5 6] 3{10} [1 2 4 5 6]{5} [1 2 4 5 6] 3{9} [1 2 4 5 6]{6} [1 2 4 5 6] 3{9} [1 2 4 5 6]{6} [1 2 4 5 6] 3{9} [1 2 4 5 6]{6} [1 2 4 5 6] 3{9} [1 2 4 5 6]{6} [1 2 4 5 6] 3{10} [1 2 4 5 6]{5} [1 2 4 5 6] 3{9} [1 2 4 5 6]{6} [1 2 4 5 6] 3{9} [1 2 4 5 6]*) | ([1 2 4 5 6]* 3{15} [1 2 4 5 6] 3{15} [1 2 4 5 6] 3{15} [1 2 4 5 6] 3{15} [1 2 4 5 6] 3{15} [1 2 4 5 6] 3{15} [1 2 4 5 6] 3{15} [1 2 4 5 6] 3{15} [1 2 4 5 6] 3{14} [1 2 4 5 6]{1} [1 2 4 5 6] [1 2 4 5 6]{2} 3{1} [1 2 4 5 6]{4} 3{7} [1 2 4 5 6]{1} [1 2 4 5 6] [1 2 4 5 6]{10} 3{2} [1 2 4 5 6]{3} [1 2 4 5 6] [1 2 4 5 6]{10} 3{1} [1 2 4 5 6]*) | ([1 2 4 5 6]* 3{9} [1 2 4 5 6] [1 2 4 5 6]{6} 3{9} [1 2 4 5 6] [1 2 4 5 6]{5} 3{10} [1 2 4 5 6] [1 2 4 5 6]{6} 3{9} [1 2 4 5 6] [1 2 4 5 6]{6} 3{9} [1 2 4 5 6] [1 2 4 5 6]{6} 3{9} [1 2 4 5 6] [1 2 4 5 6]{6} 3{9} [1 2 4 5 6] [1 2 4 5 6]{5} 3{10} [1 2 4 5 6] [1 2 4 5 6]{5} 3{10} [1 2 4 5 6] [1 2 4 5 6]{5} 3{10} [1 2 4 5 6] [1 2 4 5 6]{3} 3{12} [1 2 4 5 6] [1 2 4 5 6]{4} 3{11} [1 2 4 5 6] [1 2 4 5 6]{5} 3{10} [1 2 4 5 6] [1 2 4 5 6]{5} 3{10} [1 2 4 5 6] [1 2 4 5 6]{7} 3{8} [1 2 4 5 6]*) | ([1 2 4 5 6]* 3{1} [1 2 4 5 6]{4} [1 2 4 5 6] [1 2 4 5 6]{10} 3{2} [1 2 4 5 6]{3} [1 2 4 5 6] [1 2 4 5 6]{2} 3{1} [1 2 4 5 6]{4} 3{7} [1 2 4 5 6]{1} [1 2 4 5 6] 3{14} [1 2 4 5 6]{1} [1 2 4 5 6] 3{15} [1 2 4 5 6] 3{15} [1 2 4 5 6] 3{15} [1 2 4 5 6] 3{15} [1 2 4 5 6] 3{15} [1 2 4 5 6] 3{15} [1 2 4 5 6] 3{15} [1 2 4 5 6] 3{15} [1 2 4 5 6]*) | ([1 2 4 5 6]* 3{8} [1 2 4 5 6] [1 2 4 5 6]{5} 3{10} [1 2 4 5 6] [1 2 4 5 6]{5} 3{10} [1 2 4 5 6] [1 2 4 5 6]{4} 3{11} [1 2 4 5 6] [1 2 4 5 6]{3} 3{12} [1 2 4 5 6] [1 2 4 5 6]{5} 3{10} [1 2 4 5 6] [1 2 4 5 6]{5} 3{10} [1 2 4 5 6] [1 2 4 5 6]{5} 3{10} [1 2 4 5 6] [1 2 4 5 6]{6} 3{9} [1 2 4 5 6] [1 2 4 5 6]{6} 3{9} [1 2 4 5 6] [1 2 4 5 6]{6} 3{9} [1 2 4 5 6] [1 2 4 5 6]{6} 3{9} [1 2 4 5 6] [1 2 4 5 6]{5} 3{10} [1 2 4 5 6] [1 2 4 5 6]{6} 3{9} [1 2 4 5 6] [1 2 4 5 6]{6} 3{9} [1 2 4 5 6]*) | ([1 2 4 5 6]* 3{15} [1 2 4 5 6] 3{15} [1 2 4 5 6] 3{15} [1 2 4 5 6] 3{15} [1 2 4 5 6] 3{15} [1 2 4 5 6] 3{15} [1 2 4 5 6] 3{15} [1 2 4 5 6] 3{15} [1 2 4 5 6] [1 2 4 5 6]{1} 3{14} [1 2 4 5 6] [1 2 4 5 6]{1} 3{7} [1 2 4 5 6]{4} 3{1} [1 2 4 5 6]{2} [1 2 4 5 6] [1 2 4 5 6]{3} 3{2} [1 2 4 5 6]{10} [1 2 4 5 6] [1 2 4 5 6]{4} 3{1} [1 2 4 5 6]*) | ([1 2 4 5 6]* 3{9} [1 2 4 5 6]{6} [1 2 4 5 6] 3{9} [1 2 4 5 6]{6} [1 2 4 5 6] 3{10} [1 2 4 5 6]{5} [1 2 4 5 6] 3{9} [1 2 4 5 6]{6} [1 2 4 5 6] 3{9} [1 2 4 5 6]{6} [1 2 4 5 6] 3{9} [1 2 4 5 6]{6} [1 2 4 5 6] 3{9} [1 2 4 5 6]{6} [1 2 4 5 6] 3{10} [1 2 4 5 6]{5} [1 2 4 5 6] 3{10} [1 2 4 5 6]{5} [1 2 4 5 6] 3{10} [1 2 4 5 6]{5} [1 2 4 5 6] 3{12} [1 2 4 5 6]{3} [1 2 4 5 6] 3{11} [1 2 4 5 6]{4} [1 2 4 5 6] 3{10} [1 2 4 5 6]{5} [1 2 4 5 6] 3{10} [1 2 4 5 6]{5} [1 2 4 5 6] 3{8} [1 2 4 5 6]*) )",
    "( ([1 2 3 5 6]* 4{5} [1 2 3 5 6] [1 2 3 5 6]{10} 4{5} [1 2 3 5 6] [1 2 3 5 6]{10} 4{1} [1 2 3 5 6]{1} 4{3} [1 2 3 5 6] [1 2 3 5 6]{14} 4{1} [1 2 3 5 6]*) | ([1 2 3 5 6]* 4{3} [1 2 3 5 6] [1 2 3 5 6]{13} 4{2} [1 2 3 5 6] [1 2 3 5 6]{12} 4{3} [1 2 3 5 6] [1 2 3 5 6]{12} 4{3} [1 2 3 5 6] [1 2 3 5 6]{11} 4{4} [1 2 3 5 6]*) | ([1 2 3 5 6]* 4{1} [1 2 3 5 6]{14} [1 2 3 5 6] 4{3} [1 2 3 5 6]{1} 4{1} [1 2 3 5 6]{10} [1 2 3 5 6] 4{5} [1 2 3 5 6]{10} [1 2 3 5 6] 4{5} [1 2 3 5 6]*) | ([1 2 3 5 6]* 4{4} [1 2 3 5 6]{11} [1 2 3 5 6] 4{3} [1 2 3 5 6]{12} [1 2 3 5 6] 4{3} [1 2 3 5 6]{12} [1 2 3 5 6] 4{2} [1 2 3 5 6]{13} [1 2 3 5 6] 4{3} [1 2 3 5 6]*) | ([1 2 3 5 6]* 4{5} [1 2 3 5 6]{10} [1 2 3 5 6] 4{5} [1 2 3 5 6]{10} [1 2 3 5 6] 4{3} [1 2 3 5 6]{1} 4{1} [1 2 3 5 6]{10} [1 2 3 5 6] 4{1} [1 2 3 5 6]*) | ([1 2 3 5 6]* 4{3} [1 2 3 5 6]{12} [1 2 3 5 6] 4{2} [1 2 3 5 6]{13} [1 2 3 5 6] 4{3} [1 2 3 5 6]{12} [1 2 3 5 6] 4{3} [1 2 3 5 6]{12} [1 2 3 5 6] 4{4} [1 2 3 5 6]*) | ([1 2 3 5 6]* 4{1} [1 2 3 5 6] [1 2 3 5 6]{10} 4{1} [1 2 3 5 6]{1} 4{3} [1 2 3 5 6] [1 2 3 5 6]{10} 4{5} [1 2 3 5 6] [1 2 3 5 6]{10} 4{5} [1 2 3 5 6]*) | ([1 2 3 5 6]* 4{4} [1 2 3 5 6] [1 2 3 5 6]{12} 4{3} [1 2 3 5 6] [1 2 3 5 6]{12} 4{3} [1 2 3 5 6] [1 2 3 5 6]{13} 4{2} [1 2 3 5 6] [1 2 3 5 6]{12} 4{3} [1 2 3 5 6]*) )",
    "( ([1 2 3 4 6]* 5{2} [1 2 3 4 6]{13} [1 2 3 4 6] 5{2} [1 2 3 4 6]{13} [1 2 3 4 6] 5{3} [1 2 3 4 6]{12} [1 2 3 4 6] 5{3} [1 2 3 4 6]{12} [1 2 3 4 6] 5{1} [1 2 3 4 6]{14} [1 2 3 4 6] 5{1} [1 2 3 4 6]*) | ([1 2 3 4 6]* 5{6} [1 2 3 4 6]{1} [1 2 3 4 6] [1 2 3 4 6]{10} 5{4} [1 2 3 4 6]{1} [1 2 3 4 6] [1 2 3 4 6]{10} 5{2} [1 2 3 4 6]*) | ([1 2 3 4 6]* 5{1} [1 2 3 4 6] [1 2 3 4 6]{14} 5{1} [1 2 3 4 6] [1 2 3 4 6]{12} 5{3} [1 2 3 4 6] [1 2 3 4 6]{12} 5{3} [1 2 3 4 6] [1 2 3 4 6]{13} 5{2} [1 2 3 4 6] [1 2 3 4 6]{13} 5{2} [1 2 3 4 6]*) | ([1 2 3 4 6]* 5{2} [1 2 3 4 6]{10} [1 2 3 4 6] [1 2 3 4 6]{1} 5{4} [1 2 3 4 6]{10} [1 2 3 4 6] [1 2 3 4 6]{1} 5{6} [1 2 3 4 6]*) | ([1 2 3 4 6]* 5{2} [1 2 3 4 6] [1 2 3 4 6]{13} 5{2} [1 2 3 4 6] [1 2 3 4 6]{12} 5{3} [1 2 3 4 6] [1 2 3 4 6]{12} 5{3} [1 2 3 4 6] [1 2 3 4 6]{14} 5{1} [1 2 3 4 6] [1 2 3 4 6]{14} 5{1} [1 2 3 4 6]*) | ([1 2 3 4 6]* 5{6} [1 2 3 4 6]{8} [1 2 3 4 6] [1 2 3 4 6]{1} 5{4} [1 2 3 4 6]{10} [1 2 3 4 6] [1 2 3 4 6]{3} 5{2} [1 2 3 4 6]*) | ([1 2 3 4 6]* 5{1} [1 2 3 4 6]{14} [1 2 3 4 6] 5{1} [1 2 3 4 6]{14} [1 2 3 4 6] 5{3} [1 2 3 4 6]{12} [1 2 3 4 6] 5{3} [1 2 3 4 6]{12} [1 2 3 4 6] 5{2} [1 2 3 4 6]{13} [1 2 3 4 6] 5{2} [1 2 3 4 6]*) | ([1 2 3 4 6]* 5{2} [1 2 3 4 6]{3} [1 2 3 4 6] [1 2 3 4 6]{10} 5{4} [1 2 3 4 6]{1} [1 2 3 4 6] [1 2 3 4 6]{8} 5{6} [1 2 3 4 6]*) )",
];
